NAME : portcgen-29-18
COMMENT : portcgen N=29, seed=18
TYPE : TSP
DIMENSION : 29
EDGE_WEIGHT_TYPE : EUC_2D
NODE_COORD_SECTION
1 230115 77298
2 -214949 350152
3 126408 459335
4 123380 85543
5 72730 139550
6 -150415 154424
7 -51573 258755
8 -303865 -278068
9 106923 209485
10 226939 145125
11 314083 -215068
12 95268 -312569
13 -59778 -58355
14 71112 231171
15 137634 -456644
16 -6557 249088
17 35656 -77161
18 -10951 4654
19 253837 20495
20 88147 -11637
21 -162860 -42561
22 208143 -92183
23 202502 185467
24 14656 463225
25 63291 -95591
26 -285390 -67467
27 -215697 -91531
28 -237609 -58525
29 -134941 -1717
